21
5
951  490 -1
1215  486 -1
1221  375 -1
1231  473 0
1231  111 0
1546  111 0
1551  468 0
879  111 1
1208  113 1
1209  468 1
880  472 1
882  505 2
1209  509 2
1211  703 2
884  700 2
306  111 3
852  106 3
852  475 3
385  472 3
380  295 3
304  277 3
0 1 0 0 0 0 0 0 0 1 0 0 0 0 0 0 0 0 0 0 0 
1 0 1 0 0 0 0 0 0 0 0 0 0 0 0 0 0 0 0 0 0 
0 1 0 0 0 0 0 0 0 1 0 0 0 0 0 0 0 0 0 0 0 
0 0 0 0 0 0 0 0 0 0 0 0 0 0 0 0 0 0 0 0 0 
0 0 0 0 0 0 0 0 0 0 0 0 0 0 0 0 0 0 0 0 0 
0 0 0 0 0 0 0 0 0 0 0 0 0 0 0 0 0 0 0 0 0 
0 0 0 0 0 0 0 0 0 0 0 0 0 0 0 0 0 0 0 0 0 
0 0 0 0 0 0 0 0 0 0 0 0 0 0 0 0 0 0 0 0 0 
0 0 0 0 0 0 0 0 0 0 0 0 0 0 0 0 0 0 0 0 0 
1 0 1 0 0 0 0 0 0 0 0 0 0 0 0 0 0 0 0 0 0 
0 0 0 0 0 0 0 0 0 0 0 0 0 0 0 0 0 0 0 0 0 
0 0 0 0 0 0 0 0 0 0 0 0 0 0 0 0 0 0 0 0 0 
0 0 0 0 0 0 0 0 0 0 0 0 0 0 0 0 0 0 0 0 0 
0 0 0 0 0 0 0 0 0 0 0 0 0 0 0 0 0 0 0 0 0 
0 0 0 0 0 0 0 0 0 0 0 0 0 0 0 0 0 0 0 0 0 
0 0 0 0 0 0 0 0 0 0 0 0 0 0 0 0 0 0 0 0 0 
0 0 0 0 0 0 0 0 0 0 0 0 0 0 0 0 0 0 0 0 0 
0 0 0 0 0 0 0 0 0 0 0 0 0 0 0 0 0 0 0 0 0 
0 0 0 0 0 0 0 0 0 0 0 0 0 0 0 0 0 0 0 0 0 
0 0 0 0 0 0 0 0 0 0 0 0 0 0 0 0 0 0 0 0 0 
0 0 0 0 0 0 0 0 0 0 0 0 0 0 0 0 0 0 0 0 0 
1  1  0  0  0  0  0  0  0  0  0  0  0  0  0  0  0  0  0  0  0
1  1  1  0  0  0  0  0  0  0  0  0  0  0  0  0  0  0  0  0  0
0  1  1  0  0  0  0  0  0  0  0  0  0  0  0  0  0  0  0  0  0
0  0  0  1  1  1  1  0  0  0  0  0  0  0  0  0  0  0  0  0  0
0  0  0  1  1  1  1  0  0  0  0  0  0  0  0  0  0  0  0  0  0
0  0  0  1  1  1  1  0  0  0  0  0  0  0  0  0  0  0  0  0  0
0  0  0  1  1  1  1  0  0  0  0  0  0  0  0  0  0  0  0  0  0
0  0  0  0  0  0  0  1  1  1  1  0  0  0  0  0  0  0  0  0  0
0  0  0  0  0  0  0  1  1  1  1  0  0  0  0  0  0  0  0  0  0
0  0  0  0  0  0  0  1  1  1  1  0  0  0  0  0  0  0  0  0  0
0  0  0  0  0  0  0  1  1  1  1  0  0  0  0  0  0  0  0  0  0
0  0  0  0  0  0  0  0  0  0  0  1  1  1  1  0  0  0  0  0  0
0  0  0  0  0  0  0  0  0  0  0  1  1  1  1  0  0  0  0  0  0
0  0  0  0  0  0  0  0  0  0  0  1  1  1  1  0  0  0  0  0  0
0  0  0  0  0  0  0  0  0  0  0  1  1  1  1  0  0  0  0  0  0
0  0  0  0  0  0  0  0  0  0  0  0  0  0  0  1  1  1  0  1  1
0  0  0  0  0  0  0  0  0  0  0  0  0  0  0  1  1  1  1  1  1
0  0  0  0  0  0  0  0  0  0  0  0  0  0  0  1  1  1  1  1  0
0  0  0  0  0  0  0  0  0  0  0  0  0  0  0  0  1  1  1  1  0
0  0  0  0  0  0  0  0  0  0  0  0  0  0  0  1  1  1  1  1  1
0  0  0  0  0  0  0  0  0  0  0  0  0  0  0  1  1  0  0  1  1
